nN = 5;
nR = 25;
nH = 1;

a = [[22, 20, 18, 19, 18, 24, 22, 17, 23, 20, 24, 15, 21, 24, 24, 24, 24, 25, 19, 15, 22, 19, 20, 16, 20], [15, 25, 18, 18, 21, 15, 20, 16, 21, 17, 15, 22, 18, 20, 18, 18, 19, 15, 15, 17, 19, 19, 17, 22, 22], [23, 18, 24, 15, 20, 24, 18, 18, 20, 16, 23, 16, 23, 16, 15, 17, 17, 20, 24, 22, 23, 17, 15, 25, 17], [17, 19, 18, 20, 20, 19, 17, 25, 19, 20, 16, 17, 17, 16, 21, 21, 25, 18, 15, 15, 24, 24, 15, 15, 24], [17, 22, 19, 19, 19, 24, 15, 16, 16, 25, 25, 24, 20, 17, 15, 17, 17, 19, 16, 18, 23, 20, 15, 21, 18]];
c = [[[0, 0, 0, 0, 0, 0, 0, 0, 0, 0, 0, 0, 0, 0, 0, 0, 0, 0, 0, 0, 0, 0, 0, 0, 0], [43, 37, 32, 36, 47, 35, 31, 39, 39, 49, 32, 50, 35, 48, 39, 40, 35, 32, 35, 46, 41, 47, 41, 37, 36], [37, 42, 50, 38, 38, 46, 38, 31, 30, 46, 50, 43, 49, 46, 45, 46, 41, 49, 32, 35, 40, 39, 44, 30, 45], [33, 43, 45, 37, 34, 50, 48, 46, 31, 43, 33, 40, 36, 42, 47, 46, 38, 46, 37, 31, 37, 39, 36, 34, 36], [44, 48, 31, 47, 35, 38, 45, 36, 34, 45, 41, 48, 44, 36, 37, 38, 44, 35, 49, 36, 34, 32, 39, 44, 34]], [[0, 0, 0, 0, 0, 0, 0, 0, 0, 0, 0, 0, 0, 0, 0, 0, 0, 0, 0, 0, 0, 0, 0, 0, 0], [0, 0, 0, 0, 0, 0, 0, 0, 0, 0, 0, 0, 0, 0, 0, 0, 0, 0, 0, 0, 0, 0, 0, 0, 0], [33, 42, 42, 38, 49, 47, 45, 43, 48, 47, 36, 50, 38, 41, 40, 50, 48, 42, 38, 42, 35, 40, 48, 50, 48], [37, 41, 44, 32, 44, 43, 50, 49, 45, 49, 43, 37, 33, 47, 38, 30, 48, 38, 34, 45, 35, 30, 47, 38, 41], [44, 33, 34, 50, 41, 35, 34, 45, 34, 38, 48, 50, 38, 40, 49, 50, 33, 38, 41, 43, 50, 48, 37, 38, 35]], [[0, 0, 0, 0, 0, 0, 0, 0, 0, 0, 0, 0, 0, 0, 0, 0, 0, 0, 0, 0, 0, 0, 0, 0, 0], [0, 0, 0, 0, 0, 0, 0, 0, 0, 0, 0, 0, 0, 0, 0, 0, 0, 0, 0, 0, 0, 0, 0, 0, 0], [0, 0, 0, 0, 0, 0, 0, 0, 0, 0, 0, 0, 0, 0, 0, 0, 0, 0, 0, 0, 0, 0, 0, 0, 0], [47, 45, 41, 30, 37, 42, 50, 37, 38, 40, 50, 44, 42, 30, 40, 33, 46, 46, 40, 31, 35, 49, 50, 36, 32], [48, 47, 36, 47, 47, 41, 39, 44, 33, 50, 46, 33, 47, 39, 41, 40, 35, 48, 48, 36, 30, 38, 43, 34, 38]], [[0, 0, 0, 0, 0, 0, 0, 0, 0, 0, 0, 0, 0, 0, 0, 0, 0, 0, 0, 0, 0, 0, 0, 0, 0], [0, 0, 0, 0, 0, 0, 0, 0, 0, 0, 0, 0, 0, 0, 0, 0, 0, 0, 0, 0, 0, 0, 0, 0, 0], [0, 0, 0, 0, 0, 0, 0, 0, 0, 0, 0, 0, 0, 0, 0, 0, 0, 0, 0, 0, 0, 0, 0, 0, 0], [0, 0, 0, 0, 0, 0, 0, 0, 0, 0, 0, 0, 0, 0, 0, 0, 0, 0, 0, 0, 0, 0, 0, 0, 0], [31, 36, 31, 30, 34, 35, 41, 32, 30, 39, 31, 48, 38, 42, 46, 40, 31, 34, 48, 48, 34, 42, 30, 50, 41]], [[0, 0, 0, 0, 0, 0, 0, 0, 0, 0, 0, 0, 0, 0, 0, 0, 0, 0, 0, 0, 0, 0, 0, 0, 0], [0, 0, 0, 0, 0, 0, 0, 0, 0, 0, 0, 0, 0, 0, 0, 0, 0, 0, 0, 0, 0, 0, 0, 0, 0], [0, 0, 0, 0, 0, 0, 0, 0, 0, 0, 0, 0, 0, 0, 0, 0, 0, 0, 0, 0, 0, 0, 0, 0, 0], [0, 0, 0, 0, 0, 0, 0, 0, 0, 0, 0, 0, 0, 0, 0, 0, 0, 0, 0, 0, 0, 0, 0, 0, 0], [0, 0, 0, 0, 0, 0, 0, 0, 0, 0, 0, 0, 0, 0, 0, 0, 0, 0, 0, 0, 0, 0, 0, 0, 0]]];

q = [[[14], [11], [25], [16], [17], [18], [22], [16], [20], [6], [6], [14], [14], [25], [9], [7], [6], [11], [25], [19], [22], [11], [20], [8], [19]], [[18], [16], [5], [17], [8], [21], [9], [5], [12], [9], [8], [20], [6], [18], [16], [11], [14], [11], [6], [21], [6], [5], [14], [18], [12]], [[11], [5], [6], [8], [20], [12], [14], [9], [15], [17], [23], [11], [11], [12], [20], [16], [10], [10], [12], [18], [24], [6], [20], [9], [18]], [[6], [16], [8], [6], [5], [9], [12], [7], [24], [8], [10], [14], [23], [12], [9], [5], [22], [8], [11], [5], [16], [6], [20], [14], [17]], [[16], [23], [5], [6], [8], [24], [25], [5], [25], [19], [23], [8], [16], [7], [16], [8], [16], [14], [17], [25], [18], [23], [12], [5], [20]]];
Q = [[60], [48], [53], [46], [61]];
